c WARNING: for repeatability, setting FPU to use double precision
d VARIABLES            72522        
d CONSTRAINTS          257064       
c ============================[ Problem Statistics ]=============================
c |                                                                             |
c |  Number of variables:         72522                                         |
c |  Number of clauses:          257064                                         |
c |  Parse time:                   0.05 s                                       |
c |                                                                             |
c ============================[ Search Statistics ]==============================
c | Conflicts |          ORIGINAL         |          LEARNT          | Progress |
c |           |    Vars  Clauses Literals |    Limit  Clauses Lit/Cl |          |
c ===============================================================================
c |       100 |   53249   207434   521701 |    76059      100      9 | 26.575 % |
c |       250 |   53248   207434   521701 |    83665      249     13 | 26.577 % |
c |       475 |   53248   207430   521691 |    92031      474     13 | 26.577 % |
c |       812 |   53248   207430   521691 |   101234      811     11 | 26.577 % |
c |      1318 |   53248   207430   521691 |   111358     1317     15 | 26.577 % |
c |      2077 |   53248   207430   521691 |   122493     2076     16 | 26.577 % |
c |      3216 |   53248   207430   521691 |   134743     3215     23 | 26.577 % |
c |      4924 |   53248   207430   521691 |   148217     4923     30 | 26.577 % |
c |      7486 |   53248   207430   521691 |   163039     7485     28 | 26.577 % |
c |     11330 |   53248   207430   521691 |   179343    11329     34 | 26.577 % |
c |     17096 |   53248   207430   521691 |   197277    17095     42 | 26.577 % |
c |     25745 |   53248   207430   521691 |   217005    25744     44 | 26.577 % |
c ===============================================================================
c restarts              : 94
c conflicts             : 26673          (3988 /sec)
c decisions             : 285543         (0.00 % random) (42692 /sec)
c propagations          : 46736116       (6987619 /sec)
c conflict literals     : 1191835        (9.71 % deleted)
d RESTARTS             94
d FAILURES             26673        
d NODES                285543       
d BACKTRACKS           285543       
d PROPAGATIONS         46736116     
d NOGOODSIZE           44.68 
d MEMORY               30.00 
d TIME                 6.68842 

s SATISFIABLE
